best_sol:922 102 155 522 250 487 305 941 318 976 279 35 1025 467 18 427 707 1140 890 410 1096 1118 229 324 524 868 1188 211 163 471 64 785 448 725 1159 655 651 1147 1129 939 988 1170 1191 73 692 629 743 247 144 773 284 326 559 533 283 900 770 586 134 355 379 529 101 1046 1178 654 679 371 21 880 1102 716 136 783 1142 1040 175 442 351 93 808 401 6 749 862 696 127 1087 575 104 23 238 45 1086 1000 146 767 863 779 171 1128 851 547 768 642 699 909 26 1079 815 303 1157 823 48 814 981 489 936 200 700 301 1163 579 484 742 780 718 428 538 853 472 590 1197 372 521 621 1171 83 971 650 1101 802 744 648 493 797 805 806 1053 535 970 368 129 913 1069 563 1190 534 561 1109 893 1034 1011 455 60 811 85 481 139 1064 736 859 15 776 107 425 520 754 832 190 406 974 1038 74 123 875 899 282 1072 408 1051 748 402 1039 676 234 339 705 792 867 588 763 584 641 103 1019 361 1037 1006 290 1103 766 826 1036 910 1058 258 1114 87 720 458 537 54 374 166 979 383 306 920 644 611 1150 403 765 1113 746 531 346 188 844 69 536 72 29 207 800 353 657 172 338 1080 165 1027 903 715 52 515 1084 1133 907 649 272 65 1008 637 722 934 429 281 530 565 1081 892 1110 447 329 418 887 812 340 16 92 1042 86 349 224 105 554 1002 153 128 843 388 1063 855 635 820 731 1122 245 31 228 176 601 952 968 433 296 1100 156 839 612 775 1078 480 49 192 1055 940 756 1115 376 46 1199 717 963 658 1033 1111 948 75 55 145 295 193 1127 689 360 933 24 259 0 289 906 789 985 1156 790 986 506 1004 235 690 239 632 99 929 787 147 996 41 474 422 989 1012 39 564 581 297 609 778 280 482 132 316 413 1099 694 187 97 883 653 1031 672 90 313 149 646 915 453 42 566 624 34 1146 762 342 446 164 490 1062 750 113 449 568 610 599 1022 397 873 415 519 508 822 170 1162 686 1185 555 118 869 626 277 891 602 270 1141 1050 370 214 1144 1013 337 30 412 331 497 119 918 957 701 1181 386 1153 203 894 177 77 236 495 135 197 399 747 179 1047 516 243 381 560 409 543 991 1131 298 242 466 849 47 861 1179 121 675 606 276 589 947 209 1071 846 1168 587 1059 439 285 528 1018 505 1017 1136 325 1043 595 856 953 398 10 246 757 293 949 711 552 225 438 419 498 1160 703 1143 973 848 660 755 872 1174 623 312 619 434 345 20 809 684 877 905 539 343 473 670 1196 745 562 571 261 411 78 110 350 320 817 788 81 659 545 774 652 194 1026 158 972 56 100 847 1149 241 1134 605 17 577 556 178 501 858 479 233 288 841 1005 256 946 1065 1119 304 407 617 870 62 1073 1056 327 799 620 89 889 640 978 251 359 1010 723 1167 513 1121 931 1024 983 927 202 227 1120 597 573 984 704 294 860 459 943 249 993 334 308 237 1123 230 1030 382 367 834 550 607 488 838 662 507 451 969 669 1098 739 1180 426 674 33 738 807 2 352 753 71 321 362 647 440 958 1 252 1105 70 546 688 852 126 878 622 420 219 341 95 414 1074 830 532 682 631 1139 1028 486 445 824 357 454 526 217 157 987 59 131 173 291 257 314 499 310 393 1090 114 3 1083 444 311 603 582 593 208 638 1032 167 400 463 218 181 98 416 708 525 271 667 885 53 395 628 1145 1067 1125 544 1003 148 142 671 1169 287 1194 392 1186 461 262 50 348 267 185 1155 384 57 962 615 152 356 608 865 476 124 668 1117 1154 40 698 691 514 876 468 1009 752 821 510 206 616 504 1070 959 373 11 491 713 724 553 1195 380 921 28 226 213 450 436 634 727 681 888 801 751 363 38 960 804 919 322 558 183 244 733 106 300 714 866 819 196 1137 740 693 417 517 150 633 1192 8 268 518 1014 67 391 677 116 191 828 781 1001 771 782 1193 795 569 253 1189 84 335 1172 645 930 1152 706 333 232 1112 76 122 673 664 871 220 1057 441 1023 184 842 260 354 269 503 221 302 452 627 758 377 831 198 1089 1061 685 625 248 63 14 328 935 1135 680 1107 583 115 1148 965 278 456 850 897 591 585 430 760 1016 180 895 437 523 344 998 502 527 1020 732 273 201 117 917 663 999 390 741 1041 151 1097 460 36 1015 793 396 366 924 886 82 882 1077 1161 572 1085 827 997 160 274 223 764 966 204 240 512 496 600 483 683 1175 912 837 299 1116 477 1198 68 803 1029 548 332 854 9 1094 1091 133 168 712 666 721 982 697 43 109 369 275 12 709 210 358 509 387 394 926 570 492 137 901 992 1048 195 32 761 378 728 212 938 904 975 1183 596 836 470 25 923 494 540 1021 404 541 1045 961 1184 945 205 613 1066 307 120 845 594 255 661 140 950 818 375 1138 813 435 719 1106 928 80 911 1007 1173 902 91 898 916 964 457 485 908 944 319 874 881 263 1075 896 265 1132 777 1108 951 1095 1076 794 464 956 786 825 111 475 791 1082 1035 735 323 215 1124 1151 1158 864 1182 995 264 51 656 955 254 431 58 1092 678 315 990 108 19 27 161 421 580 292 729 759 578 423 500 88 695 443 186 557 1126 1130 772 1187 389 810 465 1164 266 551 61 796 618 977 424 169 7 857 309 980 937 1165 317 143 833 462 798 286 567 5 636 604 914 511 96 174 829 79 967 840 592 1177 138 432 336 665 994 44 330 1104 125 576 1052 730 199 835 13 954 1054 1060 347 222 630 574 478 879 182 932 702 1176 1093 469 1044 614 162 816 726 1088 687 94 1068 231 385 112 784 942 734 37 159 549 141 925 1049 1166 769 130 542 66 598 189 884 365 154 216 737 22 405 710 4 643 639 364 
exact_result:-849546554  是否排列1 ax=57952  bx=848  cx=-34689850  obj=-849546554
 ax上界求解时间：20.687000 上界花费时间：20.766000
 ax下界求解时间：18.625000 下界花费时间：18.719000 
bx上界求解时间：20.750000 上界花费时间：20.843000
 bx下界求解时间：18.547000 下界花费时间：18.625000 
模型总求解时间：2479.003000  模型求解时间：2391.691000 axbx上下届时间：85.094000 结果是否最优:y
***********
Minimum Execution Time:2479.003000
Maximum Execution Time:2479.003000
Average Execution Time:2479.003000
best_sol:922 102 155 1122 250 487 305 941 318 976 279 35 1025 467 18 427 707 1140 890 410 1096 1118 229 324 524 868 1188 211 163 471 64 785 448 725 1159 655 198 1147 1129 939 227 1170 1191 73 760 629 743 247 144 773 284 326 559 533 283 900 770 586 134 355 379 529 101 1046 1178 654 679 371 21 880 1102 716 136 783 1142 1040 175 442 569 93 808 401 6 749 862 696 127 1087 575 104 23 238 45 1086 1000 146 767 863 779 171 354 851 547 768 642 699 909 26 1079 815 303 1157 823 48 814 981 489 936 200 700 301 812 579 484 742 780 718 428 538 853 472 590 1197 372 521 621 1171 83 971 650 1101 802 744 648 493 797 805 806 1053 535 970 368 129 913 1069 563 1190 534 561 1109 893 1034 1011 455 60 811 85 481 139 1064 736 859 15 776 107 425 520 754 832 190 406 974 1038 74 123 875 899 282 1072 408 1051 748 402 1039 676 411 339 705 792 867 588 763 286 641 103 1019 361 1037 1006 290 1103 766 826 1036 910 1058 258 1114 87 720 458 537 54 374 166 979 383 306 920 644 611 1150 403 765 1113 746 531 346 188 844 69 536 72 29 207 800 353 657 172 338 1080 165 1027 903 715 52 515 1084 1133 907 649 272 65 1008 637 722 934 429 281 530 565 1081 892 1110 447 329 418 887 213 340 16 92 1042 86 349 224 105 554 1002 153 128 843 388 1063 855 635 820 731 1179 245 31 228 176 601 952 968 433 296 1100 156 167 612 775 1078 480 49 192 1055 940 756 1115 376 46 1199 717 963 658 1033 1111 948 75 55 145 295 193 1127 689 360 933 24 259 0 289 906 789 985 1156 790 986 506 1004 235 1158 239 632 99 929 787 147 996 41 474 422 989 1012 39 564 581 297 609 778 280 482 132 316 413 1099 694 187 97 883 653 1031 672 90 313 149 646 915 453 42 566 624 34 1032 762 342 446 164 490 1062 750 113 449 568 610 599 1022 397 873 415 519 508 822 170 1162 686 1185 555 118 869 626 277 891 602 270 1141 1050 370 214 1144 1013 337 30 412 331 497 119 918 957 701 861 386 138 203 894 177 77 236 495 135 197 399 747 179 1047 516 243 381 560 409 543 991 1131 593 242 483 849 47 434 975 121 675 606 276 589 947 209 1071 1128 1168 587 1059 439 285 528 1018 505 1017 1136 325 1043 595 856 953 398 10 246 757 293 949 711 552 225 438 419 498 1160 703 1143 973 848 660 755 872 1174 623 312 619 777 345 20 809 684 877 905 539 343 473 670 1196 745 562 571 261 627 78 110 350 320 817 788 81 659 545 774 652 194 1026 158 972 56 100 847 1149 241 1134 605 17 577 556 178 501 858 479 233 288 841 1005 256 946 1065 1119 304 407 617 870 62 1073 1056 327 799 620 89 889 640 978 251 359 1010 723 1167 513 1121 931 1024 983 927 202 180 1120 597 573 984 704 294 860 459 943 249 993 334 308 237 1123 230 1030 382 367 834 550 607 488 838 662 507 451 969 669 1098 739 1180 426 674 33 738 807 2 352 753 71 321 362 647 440 958 1 252 1105 70 546 688 852 126 878 622 420 219 341 95 414 1074 830 532 682 631 1139 1028 486 445 824 357 454 526 217 157 987 59 131 173 291 257 314 499 310 393 1090 988 3 1083 444 311 603 582 1153 208 638 692 317 400 463 218 181 98 416 708 525 271 667 885 53 395 628 1145 1067 1125 544 1003 148 142 671 1169 287 1194 392 1186 461 262 50 651 267 185 1155 384 57 962 615 152 356 608 865 476 124 668 1117 1154 40 698 691 514 876 468 1009 752 821 510 206 616 504 1070 959 373 11 491 713 724 553 1195 380 921 28 839 114 450 436 846 727 681 888 801 751 363 38 960 804 919 322 558 183 244 733 106 300 714 866 819 196 1181 740 693 417 226 150 633 1192 8 268 518 1014 67 391 677 116 191 828 781 1001 771 782 1193 795 348 253 1189 84 335 1172 645 930 1152 706 333 232 1112 76 122 673 664 871 220 1057 441 1023 184 842 260 1044 269 503 221 302 452 874 758 377 831 517 1089 1061 685 625 248 63 14 328 935 1135 680 1107 583 115 1148 965 278 456 850 897 591 585 430 1137 1016 264 895 437 523 344 998 502 527 1020 732 273 201 117 917 663 999 390 741 1041 151 1097 460 36 1015 793 396 366 924 886 82 882 1077 1161 572 204 827 997 160 274 223 764 966 1146 240 512 496 600 298 683 1175 912 837 299 1116 477 1198 68 803 1029 548 332 854 9 1094 1091 133 168 712 666 721 982 697 43 109 369 275 12 709 210 358 509 387 394 926 570 492 137 901 992 1048 195 32 761 378 728 212 351 904 1085 1183 596 836 470 25 923 494 540 1021 404 541 1045 961 1184 945 205 613 1066 466 120 845 594 255 661 140 950 818 375 1138 813 435 719 1106 928 80 911 1007 1173 902 91 898 916 964 457 485 908 944 319 1163 881 263 1075 896 265 1132 234 1108 951 1095 1076 794 464 956 786 825 111 475 791 1082 1035 735 323 215 1124 1151 690 864 1182 995 307 51 656 955 254 431 58 1092 678 315 990 108 19 27 161 421 580 292 729 759 578 423 500 88 695 443 186 557 1126 1130 772 1187 389 810 465 1164 266 551 61 796 618 977 424 169 7 857 309 980 937 1165 584 143 833 462 798 522 567 5 636 604 914 511 96 174 829 79 967 840 592 1177 938 432 336 665 994 44 330 1104 125 576 1052 730 199 835 13 954 1054 1060 347 222 630 574 478 879 182 932 702 1176 1093 469 634 614 162 816 726 1088 687 94 1068 231 385 112 784 942 734 37 159 549 141 925 1049 1166 769 130 542 66 598 189 884 365 154 216 737 22 405 710 4 643 639 364 
exact_result:-849546501  是否排列1 ax=57935  bx=831  cx=-33690486  obj=-849546501
 ax上界求解时间：21.034000 上界花费时间：21.171000
 ax下界求解时间：19.394000 下界花费时间：19.531000 
bx上界求解时间：20.824000 上界花费时间：20.959000
 bx下界求解时间：20.570000 下界花费时间：20.718000 
模型总求解时间：3590.703000  模型求解时间：3480.051000 axbx上下届时间：89.830000 结果是否最优:y
***********
Minimum Execution Time:3590.703000
Maximum Execution Time:3590.703000
Average Execution Time:3590.703000
best_sol:922 102 155 522 141 487 305 941 318 976 279 35 1025 467 18 427 707 1140 890 410 1096 1118 229 324 524 868 1188 211 163 471 64 785 448 725 1159 655 198 1147 1129 939 988 1170 1191 73 692 629 743 247 144 773 284 326 559 533 283 900 257 586 134 355 379 529 101 1046 1178 654 679 371 21 880 1102 716 908 783 1142 1040 175 442 351 93 808 401 6 749 862 696 127 1087 575 104 23 238 45 1086 1000 146 767 863 779 171 354 851 547 768 642 699 909 26 1079 815 303 1157 823 48 814 981 489 936 200 700 301 1163 579 484 742 780 718 428 538 853 472 590 1197 372 521 621 1171 83 971 650 1101 802 744 648 493 797 805 806 1053 535 970 368 129 913 1069 563 770 534 561 1109 893 1034 1011 455 60 811 85 481 139 1064 736 859 15 776 107 425 520 754 832 190 406 974 1038 74 123 875 899 282 1072 408 1051 748 402 1039 676 234 339 705 792 867 588 763 584 1104 103 1019 361 1037 1006 290 1103 766 826 1036 910 1058 258 1114 87 720 458 537 54 374 166 979 383 306 920 644 611 1150 403 765 1113 746 531 346 188 844 69 536 72 29 207 800 353 657 172 338 1080 165 1027 903 715 52 515 1084 1133 907 649 272 65 1008 637 722 934 429 281 530 565 1081 892 1110 196 329 418 887 812 340 16 92 1042 86 349 224 105 554 1002 153 128 843 388 1063 855 635 820 731 1122 245 31 228 176 601 952 968 433 296 1100 156 178 612 775 1078 991 49 192 1055 940 756 1115 376 46 1199 717 963 658 1033 1111 948 75 55 145 295 193 1127 689 360 933 24 259 0 289 906 789 985 1156 790 986 506 1004 235 1158 239 632 99 929 787 147 996 41 474 422 989 1012 39 564 581 297 609 778 280 482 132 316 413 1099 694 187 97 883 653 1031 672 90 313 149 646 915 453 170 566 624 34 1146 762 342 446 164 490 1062 750 113 449 568 610 599 1022 397 873 415 519 508 822 447 1162 686 1185 555 118 869 626 277 891 602 270 1141 1050 370 214 1144 1013 337 30 412 331 497 119 918 957 701 1181 386 1153 203 894 177 77 236 495 135 197 399 747 179 1047 516 243 381 560 409 543 299 1131 298 242 466 849 47 861 1179 121 675 606 276 589 947 209 1071 1128 1168 587 1059 439 285 528 1018 505 1017 1136 325 1043 595 856 953 398 10 246 757 293 949 711 552 225 438 419 498 1160 703 1143 973 848 660 755 872 1174 623 312 619 434 345 20 809 684 877 905 539 343 473 670 1196 745 562 571 261 627 78 110 350 320 817 42 81 659 545 774 652 194 1026 158 972 56 100 847 1149 241 1134 605 17 577 556 980 501 858 479 233 288 841 1005 256 946 1065 1119 304 407 617 870 62 1073 1056 327 799 620 89 889 640 978 251 359 1010 723 1167 513 1121 931 1024 983 927 202 227 1120 597 573 984 704 294 860 459 943 249 993 334 308 237 1123 230 1030 382 367 834 550 607 488 838 662 507 451 969 669 1098 739 1180 426 674 33 738 807 2 352 753 71 321 362 647 440 958 1 252 1105 70 546 688 852 126 878 622 420 219 341 95 414 1074 830 532 682 631 1139 1028 486 445 824 357 454 526 217 157 987 59 131 173 291 1152 314 499 310 393 1090 114 3 1083 444 311 603 582 593 208 638 1032 167 400 463 710 181 98 416 708 525 271 667 885 53 395 628 1145 1067 1125 544 1003 148 142 671 1169 287 1194 392 1186 461 262 50 651 267 185 1155 384 57 962 615 152 356 608 865 476 124 668 1117 1154 40 698 691 514 876 468 1009 752 821 510 206 616 504 1070 959 373 11 491 713 724 553 1195 380 921 28 839 213 450 436 846 727 681 888 801 751 363 38 960 804 919 322 558 183 244 733 106 300 714 866 819 771 1137 740 693 641 226 150 633 1192 8 268 518 1014 67 391 677 116 191 828 781 1001 758 782 1193 795 348 253 1189 84 335 1172 645 930 548 706 333 232 1112 76 122 673 664 871 220 1057 441 1023 184 842 260 1044 269 503 221 302 452 836 480 377 831 517 1089 1061 685 625 248 63 14 328 935 1135 680 1107 583 115 1148 965 278 456 850 897 591 585 430 760 1016 180 895 437 523 344 998 502 527 1020 732 273 201 117 917 663 999 390 741 1041 151 1097 460 36 1015 793 396 366 924 886 82 882 1077 1161 572 1085 827 997 160 274 223 764 966 204 240 512 496 600 483 683 1175 912 837 136 1116 477 1198 68 803 1029 788 332 854 9 1094 1091 133 168 712 666 721 982 697 43 109 369 275 12 709 210 358 509 387 394 926 570 492 137 901 992 1048 195 32 761 378 728 212 938 904 975 1183 596 250 470 25 923 494 540 1021 404 541 1045 961 1184 945 205 613 1066 307 120 845 594 255 661 140 950 818 375 1138 813 435 719 1106 928 80 911 1007 1173 902 91 898 916 964 457 485 569 944 319 874 881 263 1075 896 265 1132 777 1108 951 1095 1076 794 464 956 786 825 111 475 791 1082 1035 735 323 215 1124 1151 690 864 1182 995 264 51 656 955 254 431 58 1092 678 315 990 108 19 27 161 421 580 292 729 759 578 423 500 88 695 443 186 557 1126 1130 772 1187 389 810 465 1164 266 551 61 796 618 977 424 169 7 857 309 1190 937 1165 317 143 833 462 798 286 567 5 636 604 914 511 96 174 829 79 967 840 592 1177 138 432 336 665 994 44 330 411 125 576 1052 730 199 835 13 954 1054 1060 347 222 630 574 478 879 182 932 702 1176 1093 469 634 614 162 816 726 1088 687 94 1068 231 385 112 784 942 734 37 159 549 218 925 1049 1166 769 130 542 66 598 189 884 365 154 216 737 22 405 417 4 643 639 364 
exact_result:-849546633  是否排列1 ax=57951  bx=847  cx=-34631130  obj=-849546633
 ax上界求解时间：23.156000 上界花费时间：23.315000
 ax下界求解时间：20.678000 下界花费时间：20.831000 
bx上界求解时间：22.476000 上界花费时间：22.636000
 bx下界求解时间：21.721000 下界花费时间：21.883000 
模型总求解时间：2769.940000  模型求解时间：2652.395000 axbx上下届时间：96.282000 结果是否最优:y
***********
Minimum Execution Time:2769.940000
Maximum Execution Time:2769.940000
Average Execution Time:2769.940000
